WARNING: for repeatability, setting FPU to use double precision
============================[ Problem Statistics ]=============================
|                                                                             |
|  Number of variables:        224116                                         |
|  Number of clauses:          659680                                         |
|  Parse time:                   0.15 s                                       |
|                                                                             |
c ============================[ Search Statistics ]==============================
c | Conflicts |          ORIGINAL         |          LEARNT          | Progress |
c |           |    Vars  Clauses Literals |    Limit  Clauses Lit/Cl |          |
c ===============================================================================
c Switched to VSIDS.
c Switched to LRB.
c Switched to VSIDS.
c Switched to LRB.
c Switched to VSIDS.
c Switched to LRB.
c Switched to VSIDS.
c Switched to LRB.
c Switched to VSIDS.
c Switched to LRB.
c Switched to VSIDS.
c Switched to LRB.
c Switched to VSIDS.
c Switched to LRB.
c Switched to VSIDS.
c Switched to LRB.
c Switched to VSIDS.
c Switched to LRB.
c Switched to VSIDS.
c Switched to LRB.
c Switched to VSIDS.
c Switched to LRB.
c Switched to VSIDS.
c Switched to LRB.
c Switched to VSIDS.
c Switched to LRB.
c Switched to VSIDS.
c Switched to LRB.
c Switched to VSIDS.
c Switched to LRB.
c Switched to VSIDS.
c Switched to LRB.
c Switched to VSIDS.
c Switched to LRB.
c ===============================================================================
restarts                  : 4151
conflicts                 : 1636068        (457 /sec)
decisions                 : 17669927       (0.00 % random) (4935 /sec)
propagations              : 8083261979     (2257736 /sec)
conflict literals         : 276195752      (66.18 % deleted)

conflicts w/ DIP found    : 1339092        (81.85 % of conflicts)
conflicts w/ dangerous DIP: 0              (0.00 % of conflicts)
conflicts w/ DIP-learning : 10262          (0.63 % of conflicts)
decisions on ext vars     : 78810          (0.45 % of decisions)
total ext vars            : 1988        
tried delete ext vars     : 4           
deleted ext vars          : 4           
max ext vars              : 1984        

Memory used               : 433.00 MB
CPU time                  : 3580.25 s
DIP computation time      : 30.6458 s (0.86 % of total time)
ER_sel time               : 2.26009 s
ER_add time               : 0.016067 s
ER_delC time              : 0 s
ER_delV time              : 0.001251 s
ER_sub time               : 4.4004 s
ER_stat time              : 0 s

INDETERMINATE
